W=8;
H=5;

MAX_TIME=22;
MAX_TRACKS=10;

TARGET=(3,8);

TRAINS=[(2,1,RIGHT),(4,1,RIGHT)];
DECOYS=[(2,5,LEFT),(4,5,LEFT)];

INIT_POS=[
(2,1,STRAIGHT_RL),
(2,5,STRAIGHT_RL),
(2,6,CORNER_DL),
(3,3,STRAIGHT_RL),  
(3,6,ESWITCH_D_T_R),
(3,7,STRAIGHT_RL),
(3,8,STRAIGHT_RL),
(4,1,STRAIGHT_RL),
(4,5,STRAIGHT_RL),
(4,6,CORNER_TL),
];
TUNNEL_PAIRS=[];

GATES=[
(3,7,1,false),
];
ACTIVATIONS=[
(3,3,1),
];

DSWITCHES=[];
STATIONS=[];

SEMAPHORE_SUPPLY=0;
